p td 18 54
2 1
3 1
3 2
4 1
5 3
6 5
6 4
7 1
8 2
8 4
9 6
9 8
10 3
10 2
11 1
11 5
11 10
12 4
12 8
12 3
12 6
13 9
13 1
13 7
13 12
14 1
14 13
14 3
14 5
14 9
14 10
14 8
15 10
15 14
15 6
15 11
15 13
15 3
15 2
15 7
15 9
16 1
16 8
16 10
17 11
17 16
17 7
17 5
18 10
18 11
18 17
18 7
18 9
18 5
